p cnf 961 2466
51 -2 -694 0
-51 2 0
-51 694 0
52 -51 -3 0
-52 51 0
-52 3 0
53 -695 -4 0
-53 695 0
-53 4 0
54 -53 -696 0
-54 53 0
-54 696 0
55 -697 -698 0
-55 697 0
-55 698 0
56 -8 -7 0
-56 8 0
-56 7 0
57 -56 -699 0
-57 56 0
-57 699 0
58 -700 -55 0
-58 700 0
-58 55 0
59 -10 -701 0
-59 10 0
-59 701 0
60 -59 -702 0
-60 59 0
-60 702 0
61 -703 -58 0
-61 703 0
-61 58 0
62 -704 -705 0
-62 704 0
-62 705 0
63 -62 -706 0
-63 62 0
-63 706 0
64 -707 -61 0
-64 707 0
-64 61 0
65 -15 -14 0
-65 15 0
-65 14 0
66 -65 -16 0
-66 65 0
-66 16 0
67 -708 -64 0
-67 708 0
-67 64 0
68 -709 -17 0
-68 709 0
-68 17 0
69 -68 -3 0
-69 68 0
-69 3 0
70 -710 -67 0
-70 710 0
-70 67 0
71 -711 -19 0
-71 711 0
-71 19 0
72 -71 -712 0
-72 71 0
-72 712 0
73 -713 -70 0
-73 713 0
-73 70 0
74 -22 -714 0
-74 22 0
-74 714 0
75 -74 -715 0
-75 74 0
-75 715 0
76 -716 -73 0
-76 716 0
-76 73 0
77 -717 -718 0
-77 717 0
-77 718 0
78 -77 -719 0
-78 77 0
-78 719 0
79 -720 -76 0
-79 720 0
-79 76 0
80 -721 -5 0
-80 721 0
-80 5 0
81 -80 -701 0
-81 80 0
-81 701 0
82 -722 -79 0
-82 722 0
-82 79 0
83 -29 -723 0
-83 29 0
-83 723 0
84 -83 -706 0
-84 83 0
-84 706 0
85 -724 -82 0
-85 724 0
-85 82 0
86 -28 -8 0
-86 28 0
-86 8 0
87 -86 -30 0
-87 86 0
-87 30 0
88 -725 -85 0
-88 725 0
-88 85 0
89 -23 -17 0
-89 23 0
-89 17 0
90 -89 -726 0
-90 89 0
-90 726 0
91 -727 -88 0
-91 727 0
-91 88 0
92 -728 -1 0
-92 728 0
-92 1 0
93 -92 -729 0
-93 92 0
-93 729 0
94 -730 -91 0
-94 730 0
-94 91 0
95 -2 -1 0
-95 2 0
-95 1 0
96 -95 -9 0
-96 95 0
-96 9 0
97 -731 -94 0
-97 731 0
-97 94 0
98 -732 -733 0
-98 732 0
-98 733 0
99 -98 -734 0
-99 98 0
-99 734 0
100 -735 -97 0
-100 735 0
-100 97 0
101 -736 -10 0
-101 736 0
-101 10 0
102 -101 -701 0
-102 101 0
-102 701 0
103 -737 -100 0
-103 737 0
-103 100 0
104 -732 -738 0
-104 732 0
-104 738 0
105 -104 -715 0
-105 104 0
-105 715 0
106 -739 -103 0
-106 739 0
-106 103 0
107 -718 -10 0
-107 718 0
-107 10 0
108 -107 -23 0
-108 107 0
-108 23 0
109 -740 -106 0
-109 740 0
-109 106 0
110 -734 -721 0
-110 734 0
-110 721 0
111 -110 -37 0
-111 110 0
-111 37 0
112 -741 -109 0
-112 741 0
-112 109 0
113 -742 -743 0
-113 742 0
-113 743 0
114 -113 -712 0
-114 113 0
-114 712 0
115 -744 -112 0
-115 744 0
-115 112 0
116 -40 -736 0
-116 40 0
-116 736 0
117 -116 -11 0
-117 116 0
-117 11 0
118 -745 -115 0
-118 745 0
-118 115 0
119 -746 -747 0
-119 746 0
-119 747 0
120 -119 -30 0
-120 119 0
-120 30 0
121 -748 -118 0
-121 748 0
-121 118 0
122 -717 -23 0
-122 717 0
-122 23 0
123 -122 -749 0
-123 122 0
-123 749 0
124 -750 -121 0
-124 750 0
-124 121 0
125 -751 -38 0
-125 751 0
-125 38 0
126 -125 -30 0
-126 125 0
-126 30 0
127 -752 -124 0
-127 752 0
-127 124 0
128 -23 -20 0
-128 23 0
-128 20 0
129 -128 -729 0
-129 128 0
-129 729 0
130 -753 -127 0
-130 753 0
-130 127 0
131 -25 -699 0
-131 25 0
-131 699 0
132 -131 -16 0
-132 131 0
-132 16 0
133 -754 -130 0
-133 754 0
-133 130 0
134 -755 -714 0
-134 755 0
-134 714 0
135 -134 -756 0
-135 134 0
-135 756 0
136 -757 -133 0
-136 757 0
-136 133 0
137 -32 -714 0
-137 32 0
-137 714 0
138 -137 -26 0
-138 137 0
-138 26 0
139 -758 -136 0
-139 758 0
-139 136 0
140 -701 -1 0
-140 701 0
-140 1 0
141 -140 -30 0
-141 140 0
-141 30 0
142 -759 -139 0
-142 759 0
-142 139 0
143 -760 -24 0
-143 760 0
-143 24 0
144 -143 -13 0
-144 143 0
-144 13 0
145 -761 -142 0
-145 761 0
-145 142 0
146 -14 -699 0
-146 14 0
-146 699 0
147 -146 -30 0
-147 146 0
-147 30 0
148 -762 -145 0
-148 762 0
-148 145 0
149 -763 -25 0
-149 763 0
-149 25 0
150 -149 -18 0
-150 149 0
-150 18 0
151 -764 -148 0
-151 764 0
-151 148 0
152 -728 -18 0
-152 728 0
-152 18 0
153 -152 -729 0
-153 152 0
-153 729 0
154 -765 -151 0
-154 765 0
-154 151 0
155 -719 -10 0
-155 719 0
-155 10 0
156 -155 -45 0
-156 155 0
-156 45 0
157 -766 -154 0
-157 766 0
-157 154 0
158 -24 -767 0
-158 24 0
-158 767 0
159 -158 -733 0
-159 158 0
-159 733 0
160 -768 -157 0
-160 768 0
-160 157 0
161 -46 -705 0
-161 46 0
-161 705 0
162 -161 -16 0
-162 161 0
-162 16 0
163 -769 -160 0
-163 769 0
-163 160 0
164 -42 -695 0
-164 42 0
-164 695 0
165 -164 -15 0
-165 164 0
-165 15 0
166 -770 -163 0
-166 770 0
-166 163 0
167 -751 -771 0
-167 751 0
-167 771 0
168 -167 -756 0
-168 167 0
-168 756 0
169 -772 -166 0
-169 772 0
-169 166 0
170 -773 -4 0
-170 773 0
-170 4 0
171 -170 -728 0
-171 170 0
-171 728 0
172 -774 -169 0
-172 774 0
-172 169 0
173 -775 -712 0
-173 775 0
-173 712 0
174 -173 -704 0
-174 173 0
-174 704 0
175 -776 -172 0
-175 776 0
-175 172 0
176 -45 -755 0
-176 45 0
-176 755 0
177 -176 -49 0
-177 176 0
-177 49 0
178 -777 -175 0
-178 777 0
-178 175 0
179 -47 -715 0
-179 47 0
-179 715 0
180 -179 -29 0
-180 179 0
-180 29 0
181 -778 -178 0
-181 778 0
-181 178 0
182 -27 -695 0
-182 27 0
-182 695 0
183 -182 -30 0
-183 182 0
-183 30 0
184 -779 -181 0
-184 779 0
-184 181 0
185 -709 -4 0
-185 709 0
-185 4 0
186 -185 -729 0
-186 185 0
-186 729 0
187 -780 -184 0
-187 780 0
-187 184 0
188 -728 -714 0
-188 728 0
-188 714 0
189 -188 -29 0
-189 188 0
-189 29 0
190 -781 -187 0
-190 781 0
-190 187 0
191 -46 -9 0
-191 46 0
-191 9 0
192 -191 -15 0
-192 191 0
-192 15 0
193 -782 -190 0
-193 782 0
-193 190 0
194 -29 -5 0
-194 29 0
-194 5 0
195 -194 -706 0
-195 194 0
-195 706 0
196 -783 -193 0
-196 783 0
-196 193 0
197 -755 -784 0
-197 755 0
-197 784 0
198 -197 -16 0
-198 197 0
-198 16 0
199 -785 -196 0
-199 785 0
-199 196 0
200 -786 -751 0
-200 786 0
-200 751 0
201 -200 -729 0
-201 200 0
-201 729 0
202 -787 -199 0
-202 787 0
-202 199 0
203 -728 -22 0
-203 728 0
-203 22 0
204 -203 -1 0
-204 203 0
-204 1 0
205 -788 -202 0
-205 788 0
-205 202 0
206 -760 -717 0
-206 760 0
-206 717 0
207 -206 -749 0
-207 206 0
-207 749 0
208 -789 -205 0
-208 789 0
-208 205 0
209 -717 -5 0
-209 717 0
-209 5 0
210 -209 -711 0
-210 209 0
-210 711 0
211 -790 -208 0
-211 790 0
-211 208 0
212 -736 -31 0
-212 736 0
-212 31 0
213 -212 -18 0
-213 212 0
-213 18 0
214 -791 -211 0
-214 791 0
-214 211 0
215 -43 -6 0
-215 43 0
-215 6 0
216 -215 -746 0
-216 215 0
-216 746 0
217 -792 -214 0
-217 792 0
-217 214 0
218 -43 -14 0
-218 43 0
-218 14 0
219 -218 -793 0
-219 218 0
-219 793 0
220 -794 -217 0
-220 794 0
-220 217 0
221 -751 -32 0
-221 751 0
-221 32 0
222 -221 -23 0
-222 221 0
-222 23 0
223 -795 -220 0
-223 795 0
-223 220 0
224 -760 -747 0
-224 760 0
-224 747 0
225 -224 -796 0
-225 224 0
-225 796 0
226 -797 -223 0
-226 797 0
-226 223 0
227 -773 -736 0
-227 773 0
-227 736 0
228 -227 -24 0
-228 227 0
-228 24 0
229 -798 -226 0
-229 798 0
-229 226 0
230 -43 -718 0
-230 43 0
-230 718 0
231 -230 -702 0
-231 230 0
-231 702 0
232 -799 -229 0
-232 799 0
-232 229 0
233 -143 -696 0
-233 143 0
-233 696 0
234 -800 -232 0
-234 800 0
-234 232 0
235 -801 -1 0
-235 801 0
-235 1 0
236 -235 -37 0
-236 235 0
-236 37 0
237 -802 -234 0
-237 802 0
-237 234 0
238 -771 -8 0
-238 771 0
-238 8 0
239 -238 -756 0
-239 238 0
-239 756 0
240 -803 -237 0
-240 803 0
-240 237 0
241 -736 -695 0
-241 736 0
-241 695 0
242 -241 -804 0
-242 241 0
-242 804 0
243 -805 -240 0
-243 805 0
-243 240 0
244 -34 -30 0
-244 34 0
-244 30 0
245 -244 -806 0
-245 244 0
-245 806 0
246 -807 -243 0
-246 807 0
-246 243 0
247 -717 -695 0
-247 717 0
-247 695 0
248 -247 -2 0
-248 247 0
-248 2 0
249 -808 -246 0
-249 808 0
-249 246 0
250 -711 -747 0
-250 711 0
-250 747 0
251 -250 -15 0
-251 250 0
-251 15 0
252 -809 -249 0
-252 809 0
-252 249 0
253 -742 -705 0
-253 742 0
-253 705 0
254 -253 -749 0
-254 253 0
-254 749 0
255 -810 -252 0
-255 810 0
-255 252 0
256 -27 -25 0
-256 27 0
-256 25 0
257 -256 -17 0
-257 256 0
-257 17 0
258 -811 -255 0
-258 811 0
-258 255 0
259 -717 -6 0
-259 717 0
-259 6 0
260 -259 -784 0
-260 259 0
-260 784 0
261 -812 -258 0
-261 812 0
-261 258 0
262 -804 -1 0
-262 804 0
-262 1 0
263 -262 -756 0
-263 262 0
-263 756 0
264 -813 -261 0
-264 813 0
-264 261 0
265 -25 -9 0
-265 25 0
-265 9 0
266 -265 -771 0
-266 265 0
-266 771 0
267 -814 -264 0
-267 814 0
-267 264 0
268 -17 -747 0
-268 17 0
-268 747 0
269 -268 -21 0
-269 268 0
-269 21 0
270 -815 -267 0
-270 815 0
-270 267 0
271 -39 -28 0
-271 39 0
-271 28 0
272 -271 -2 0
-272 271 0
-272 2 0
273 -816 -270 0
-273 816 0
-273 270 0
274 -25 -696 0
-274 25 0
-274 696 0
275 -274 -30 0
-275 274 0
-275 30 0
276 -817 -273 0
-276 817 0
-276 273 0
277 -801 -733 0
-277 801 0
-277 733 0
278 -277 -712 0
-278 277 0
-278 712 0
279 -818 -276 0
-279 818 0
-279 276 0
280 -736 -699 0
-280 736 0
-280 699 0
281 -280 -734 0
-281 280 0
-281 734 0
282 -819 -279 0
-282 819 0
-282 279 0
283 -751 -4 0
-283 751 0
-283 4 0
284 -283 -702 0
-284 283 0
-284 702 0
285 -820 -282 0
-285 820 0
-285 282 0
286 -27 -717 0
-286 27 0
-286 717 0
287 -286 -701 0
-287 286 0
-287 701 0
288 -821 -285 0
-288 821 0
-288 285 0
289 -801 -4 0
-289 801 0
-289 4 0
290 -289 -784 0
-290 289 0
-290 784 0
291 -822 -288 0
-291 822 0
-291 288 0
292 -775 -23 0
-292 775 0
-292 23 0
293 -292 -729 0
-293 292 0
-293 729 0
294 -823 -291 0
-294 823 0
-294 291 0
295 -44 -824 0
-295 44 0
-295 824 0
296 -295 -771 0
-296 295 0
-296 771 0
297 -825 -294 0
-297 825 0
-297 294 0
298 -50 -717 0
-298 50 0
-298 717 0
299 -298 -12 0
-299 298 0
-299 12 0
300 -826 -297 0
-300 826 0
-300 297 0
301 -806 -38 0
-301 806 0
-301 38 0
302 -301 -793 0
-302 301 0
-302 793 0
303 -827 -300 0
-303 827 0
-303 300 0
304 -715 -6 0
-304 715 0
-304 6 0
305 -304 -30 0
-305 304 0
-305 30 0
306 -828 -303 0
-306 828 0
-306 303 0
307 -30 -11 0
-307 30 0
-307 11 0
308 -307 -771 0
-308 307 0
-308 771 0
309 -829 -306 0
-309 829 0
-309 306 0
310 -751 -28 0
-310 751 0
-310 28 0
311 -310 -824 0
-311 310 0
-311 824 0
312 -830 -309 0
-312 830 0
-312 309 0
313 -749 -38 0
-313 749 0
-313 38 0
314 -313 -11 0
-314 313 0
-314 11 0
315 -831 -312 0
-315 831 0
-315 312 0
316 -711 -2 0
-316 711 0
-316 2 0
317 -316 -3 0
-317 316 0
-317 3 0
318 -832 -315 0
-318 832 0
-318 315 0
319 -36 -28 0
-319 36 0
-319 28 0
320 -319 -749 0
-320 319 0
-320 749 0
321 -833 -318 0
-321 833 0
-321 318 0
322 -14 -10 0
-322 14 0
-322 10 0
323 -322 -732 0
-323 322 0
-323 732 0
324 -834 -321 0
-324 834 0
-324 321 0
325 -28 -696 0
-325 28 0
-325 696 0
326 -325 -37 0
-326 325 0
-326 37 0
327 -835 -324 0
-327 835 0
-327 324 0
328 -47 -40 0
-328 47 0
-328 40 0
329 -328 -8 0
-329 328 0
-329 8 0
330 -836 -327 0
-330 836 0
-330 327 0
331 -71 -41 0
-331 71 0
-331 41 0
332 -837 -330 0
-332 837 0
-332 330 0
333 -43 -22 0
-333 43 0
-333 22 0
334 -333 -706 0
-334 333 0
-334 706 0
335 -838 -332 0
-335 838 0
-335 332 0
336 -712 -20 0
-336 712 0
-336 20 0
337 -336 -3 0
-337 336 0
-337 3 0
338 -839 -335 0
-338 839 0
-338 335 0
339 -14 -12 0
-339 14 0
-339 12 0
340 -339 -16 0
-340 339 0
-340 16 0
341 -840 -338 0
-341 840 0
-341 338 0
342 -50 -743 0
-342 50 0
-342 743 0
343 -342 -37 0
-343 342 0
-343 37 0
344 -841 -341 0
-344 841 0
-344 341 0
345 -760 -34 0
-345 760 0
-345 34 0
346 -345 -732 0
-346 345 0
-346 732 0
347 -842 -344 0
-347 842 0
-347 344 0
348 -801 -705 0
-348 801 0
-348 705 0
349 -348 -749 0
-349 348 0
-349 749 0
350 -843 -347 0
-350 843 0
-350 347 0
351 -43 -4 0
-351 43 0
-351 4 0
352 -351 -719 0
-352 351 0
-352 719 0
353 -844 -350 0
-353 844 0
-353 350 0
354 -29 -699 0
-354 29 0
-354 699 0
355 -354 -13 0
-355 354 0
-355 13 0
356 -845 -353 0
-356 845 0
-356 353 0
357 -743 -30 0
-357 743 0
-357 30 0
358 -357 -18 0
-358 357 0
-358 18 0
359 -846 -356 0
-359 846 0
-359 356 0
360 -9 -705 0
-360 9 0
-360 705 0
361 -360 -35 0
-361 360 0
-361 35 0
362 -847 -359 0
-362 847 0
-362 359 0
363 -733 -721 0
-363 733 0
-363 721 0
364 -363 -729 0
-364 363 0
-364 729 0
365 -848 -362 0
-365 848 0
-365 362 0
366 -5 -4 0
-366 5 0
-366 4 0
367 -366 -715 0
-367 366 0
-367 715 0
368 -849 -365 0
-368 849 0
-368 365 0
369 -775 -767 0
-369 775 0
-369 767 0
370 -369 -734 0
-370 369 0
-370 734 0
371 -850 -368 0
-371 850 0
-371 368 0
372 -36 -16 0
-372 36 0
-372 16 0
373 -372 -706 0
-373 372 0
-373 706 0
374 -851 -371 0
-374 851 0
-374 371 0
375 -760 -38 0
-375 760 0
-375 38 0
376 -375 -12 0
-376 375 0
-376 12 0
377 -852 -374 0
-377 852 0
-377 374 0
378 -71 -35 0
-378 71 0
-378 35 0
379 -853 -377 0
-379 853 0
-379 377 0
380 -755 -25 0
-380 755 0
-380 25 0
381 -380 -31 0
-381 380 0
-381 31 0
382 -854 -379 0
-382 854 0
-382 379 0
383 -773 -8 0
-383 773 0
-383 8 0
384 -383 -31 0
-384 383 0
-384 31 0
385 -855 -382 0
-385 855 0
-385 382 0
386 -755 -695 0
-386 755 0
-386 695 0
387 -386 -26 0
-387 386 0
-387 26 0
388 -856 -385 0
-388 856 0
-388 385 0
389 -723 -22 0
-389 723 0
-389 22 0
390 -389 -45 0
-390 389 0
-390 45 0
391 -857 -388 0
-391 857 0
-391 388 0
392 -19 -7 0
-392 19 0
-392 7 0
393 -392 -6 0
-393 392 0
-393 6 0
394 -858 -391 0
-394 858 0
-394 391 0
395 -824 -7 0
-395 824 0
-395 7 0
396 -395 -48 0
-396 395 0
-396 48 0
397 -859 -394 0
-397 859 0
-397 394 0
398 -16 -8 0
-398 16 0
-398 8 0
399 -398 -13 0
-399 398 0
-399 13 0
400 -860 -397 0
-400 860 0
-400 397 0
401 -42 -861 0
-401 42 0
-401 861 0
402 -401 -796 0
-402 401 0
-402 796 0
403 -862 -400 0
-403 862 0
-403 400 0
404 -47 -14 0
-404 47 0
-404 14 0
405 -404 -696 0
-405 404 0
-405 696 0
406 -863 -403 0
-406 863 0
-406 403 0
407 -738 -714 0
-407 738 0
-407 714 0
408 -407 -746 0
-408 407 0
-408 746 0
409 -864 -406 0
-409 864 0
-409 406 0
410 -46 -784 0
-410 46 0
-410 784 0
411 -410 -45 0
-411 410 0
-411 45 0
412 -865 -409 0
-412 865 0
-412 409 0
413 -721 -4 0
-413 721 0
-413 4 0
414 -413 -18 0
-414 413 0
-414 18 0
415 -866 -412 0
-415 866 0
-415 412 0
416 -32 -10 0
-416 32 0
-416 10 0
417 -416 -763 0
-417 416 0
-417 763 0
418 -867 -415 0
-418 867 0
-418 415 0
419 -22 -824 0
-419 22 0
-419 824 0
420 -419 -719 0
-420 419 0
-420 719 0
421 -868 -418 0
-421 868 0
-421 418 0
422 -801 -25 0
-422 801 0
-422 25 0
423 -422 -701 0
-423 422 0
-423 701 0
424 -869 -421 0
-424 869 0
-424 421 0
425 -733 -804 0
-425 733 0
-425 804 0
426 -425 -35 0
-426 425 0
-426 35 0
427 -870 -424 0
-427 870 0
-427 424 0
428 -12 -4 0
-428 12 0
-428 4 0
429 -428 -756 0
-429 428 0
-429 756 0
430 -871 -427 0
-430 871 0
-430 427 0
431 -416 -715 0
-431 416 0
-431 715 0
432 -872 -430 0
-432 872 0
-432 430 0
433 -749 -702 0
-433 749 0
-433 702 0
434 -433 -729 0
-434 433 0
-434 729 0
435 -873 -432 0
-435 873 0
-435 432 0
436 -20 -2 0
-436 20 0
-436 2 0
437 -436 -9 0
-437 436 0
-437 9 0
438 -874 -435 0
-438 874 0
-438 435 0
439 -773 -19 0
-439 773 0
-439 19 0
440 -439 -738 0
-440 439 0
-440 738 0
441 -875 -438 0
-441 875 0
-441 438 0
442 -755 -804 0
-442 755 0
-442 804 0
443 -442 -702 0
-443 442 0
-443 702 0
444 -876 -441 0
-444 876 0
-444 441 0
445 -749 -755 0
-445 749 0
-445 755 0
446 -445 -712 0
-446 445 0
-446 712 0
447 -877 -444 0
-447 877 0
-447 444 0
448 -771 -12 0
-448 771 0
-448 12 0
449 -448 -13 0
-449 448 0
-449 13 0
450 -878 -447 0
-450 878 0
-450 447 0
451 -742 -701 0
-451 742 0
-451 701 0
452 -451 -726 0
-452 451 0
-452 726 0
453 -879 -450 0
-453 879 0
-453 450 0
454 -733 -699 0
-454 733 0
-454 699 0
455 -454 -6 0
-455 454 0
-455 6 0
456 -880 -453 0
-456 880 0
-456 453 0
457 -718 -6 0
-457 718 0
-457 6 0
458 -457 -706 0
-458 457 0
-458 706 0
459 -881 -456 0
-459 881 0
-459 456 0
460 -755 -736 0
-460 755 0
-460 736 0
461 -460 -42 0
-461 460 0
-461 42 0
462 -882 -459 0
-462 882 0
-462 459 0
463 -21 -804 0
-463 21 0
-463 804 0
464 -463 -706 0
-464 463 0
-464 706 0
465 -883 -462 0
-465 883 0
-465 462 0
466 -801 -10 0
-466 801 0
-466 10 0
467 -466 -20 0
-467 466 0
-467 20 0
468 -884 -465 0
-468 884 0
-468 465 0
469 -773 -39 0
-469 773 0
-469 39 0
470 -469 -771 0
-470 469 0
-470 771 0
471 -885 -468 0
-471 885 0
-471 468 0
472 -48 -8 0
-472 48 0
-472 8 0
473 -472 -18 0
-473 472 0
-473 18 0
474 -886 -471 0
-474 886 0
-474 471 0
475 -34 -11 0
-475 34 0
-475 11 0
476 -475 -796 0
-476 475 0
-476 796 0
477 -887 -474 0
-477 887 0
-477 474 0
478 -746 -35 0
-478 746 0
-478 35 0
479 -478 -709 0
-479 478 0
-479 709 0
480 -888 -477 0
-480 888 0
-480 477 0
481 -749 -25 0
-481 749 0
-481 25 0
482 -481 -806 0
-482 481 0
-482 806 0
483 -889 -480 0
-483 889 0
-483 480 0
484 -742 -5 0
-484 742 0
-484 5 0
485 -484 -6 0
-485 484 0
-485 6 0
486 -890 -483 0
-486 890 0
-486 483 0
487 -50 -15 0
-487 50 0
-487 15 0
488 -487 -704 0
-488 487 0
-488 704 0
489 -891 -486 0
-489 891 0
-489 486 0
490 -46 -695 0
-490 46 0
-490 695 0
491 -490 -27 0
-491 490 0
-491 27 0
492 -892 -489 0
-492 892 0
-492 489 0
493 -38 -696 0
-493 38 0
-493 696 0
494 -493 -793 0
-494 493 0
-494 793 0
495 -893 -492 0
-495 893 0
-495 492 0
496 -42 -734 0
-496 42 0
-496 734 0
497 -496 -729 0
-497 496 0
-497 729 0
498 -894 -495 0
-498 894 0
-498 495 0
499 -32 -695 0
-499 32 0
-499 695 0
500 -499 -1 0
-500 499 0
-500 1 0
501 -895 -498 0
-501 895 0
-501 498 0
502 -50 -742 0
-502 50 0
-502 742 0
503 -502 -726 0
-503 502 0
-503 726 0
504 -896 -501 0
-504 896 0
-504 501 0
505 -40 -6 0
-505 40 0
-505 6 0
506 -505 -704 0
-506 505 0
-506 704 0
507 -897 -504 0
-507 897 0
-507 504 0
508 -48 -701 0
-508 48 0
-508 701 0
509 -508 -18 0
-509 508 0
-509 18 0
510 -898 -507 0
-510 898 0
-510 507 0
511 -46 -22 0
-511 46 0
-511 22 0
512 -511 -702 0
-512 511 0
-512 702 0
513 -899 -510 0
-513 899 0
-513 510 0
514 -773 -718 0
-514 773 0
-514 718 0
515 -514 -699 0
-515 514 0
-515 699 0
516 -900 -513 0
-516 900 0
-516 513 0
517 -742 -721 0
-517 742 0
-517 721 0
518 -517 -30 0
-518 517 0
-518 30 0
519 -901 -516 0
-519 901 0
-519 516 0
520 -699 -701 0
-520 699 0
-520 701 0
521 -520 -749 0
-521 520 0
-521 749 0
522 -902 -519 0
-522 902 0
-522 519 0
523 -804 -705 0
-523 804 0
-523 705 0
524 -523 -796 0
-524 523 0
-524 796 0
525 -903 -522 0
-525 903 0
-525 522 0
526 -50 -30 0
-526 50 0
-526 30 0
527 -526 -709 0
-527 526 0
-527 709 0
528 -904 -525 0
-528 904 0
-528 525 0
529 -40 -861 0
-529 40 0
-529 861 0
530 -529 -793 0
-530 529 0
-530 793 0
531 -905 -528 0
-531 905 0
-531 528 0
532 -28 -717 0
-532 28 0
-532 717 0
533 -532 -709 0
-533 532 0
-533 709 0
534 -906 -531 0
-534 906 0
-534 531 0
535 -796 -771 0
-535 796 0
-535 771 0
536 -535 -756 0
-536 535 0
-536 756 0
537 -907 -534 0
-537 907 0
-537 534 0
538 -20 -714 0
-538 20 0
-538 714 0
539 -538 -793 0
-539 538 0
-539 793 0
540 -908 -537 0
-540 908 0
-540 537 0
541 -39 -38 0
-541 39 0
-541 38 0
542 -541 -21 0
-542 541 0
-542 21 0
543 -909 -540 0
-543 909 0
-543 540 0
544 -35 -23 0
-544 35 0
-544 23 0
545 -544 -696 0
-545 544 0
-545 696 0
546 -910 -543 0
-546 910 0
-546 543 0
547 -23 -4 0
-547 23 0
-547 4 0
548 -547 -706 0
-548 547 0
-548 706 0
549 -911 -546 0
-549 911 0
-549 546 0
550 -760 -771 0
-550 760 0
-550 771 0
551 -550 -763 0
-551 550 0
-551 763 0
552 -912 -549 0
-552 912 0
-552 549 0
553 -170 -46 0
-553 170 0
-553 46 0
554 -913 -552 0
-554 913 0
-554 552 0
555 -786 -4 0
-555 786 0
-555 4 0
556 -555 -709 0
-556 555 0
-556 709 0
557 -914 -554 0
-557 914 0
-557 554 0
558 -742 -22 0
-558 742 0
-558 22 0
559 -558 -12 0
-559 558 0
-559 12 0
560 -915 -557 0
-560 915 0
-560 557 0
561 -760 -27 0
-561 760 0
-561 27 0
562 -561 -16 0
-562 561 0
-562 16 0
563 -916 -560 0
-563 916 0
-563 560 0
564 -32 -717 0
-564 32 0
-564 717 0
565 -564 -42 0
-565 564 0
-565 42 0
566 -917 -563 0
-566 917 0
-566 563 0
567 -715 -695 0
-567 715 0
-567 695 0
568 -567 -756 0
-568 567 0
-568 756 0
569 -918 -566 0
-569 918 0
-569 566 0
570 -25 -14 0
-570 25 0
-570 14 0
571 -570 -23 0
-571 570 0
-571 23 0
572 -919 -569 0
-572 919 0
-572 569 0
573 -179 -702 0
-573 179 0
-573 702 0
574 -920 -572 0
-574 920 0
-574 572 0
575 -742 -712 0
-575 742 0
-575 712 0
576 -575 -806 0
-576 575 0
-576 806 0
577 -921 -574 0
-577 921 0
-577 574 0
578 -749 -732 0
-578 749 0
-578 732 0
579 -578 -729 0
-579 578 0
-579 729 0
580 -922 -577 0
-580 922 0
-580 577 0
581 -718 -23 0
-581 718 0
-581 23 0
582 -581 -784 0
-582 581 0
-582 784 0
583 -923 -580 0
-583 923 0
-583 580 0
584 -36 -32 0
-584 36 0
-584 32 0
585 -584 -701 0
-585 584 0
-585 701 0
586 -924 -583 0
-586 924 0
-586 583 0
587 -696 -1 0
-587 696 0
-587 1 0
588 -587 -734 0
-588 587 0
-588 734 0
589 -925 -586 0
-589 925 0
-589 586 0
590 -47 -723 0
-590 47 0
-590 723 0
591 -590 -48 0
-591 590 0
-591 48 0
592 -926 -589 0
-592 926 0
-592 589 0
593 -34 -767 0
-593 34 0
-593 767 0
594 -593 -20 0
-594 593 0
-594 20 0
595 -927 -592 0
-595 927 0
-595 592 0
596 -40 -2 0
-596 40 0
-596 2 0
597 -596 -9 0
-597 596 0
-597 9 0
598 -928 -595 0
-598 928 0
-598 595 0
599 -25 -709 0
-599 25 0
-599 709 0
600 -599 -3 0
-600 599 0
-600 3 0
601 -929 -598 0
-601 929 0
-601 598 0
602 -801 -760 0
-602 801 0
-602 760 0
603 -602 -13 0
-603 602 0
-603 13 0
604 -930 -601 0
-604 930 0
-604 601 0
605 -746 -732 0
-605 746 0
-605 732 0
606 -605 -704 0
-606 605 0
-606 704 0
607 -931 -604 0
-607 931 0
-607 604 0
608 -715 -1 0
-608 715 0
-608 1 0
609 -608 -734 0
-609 608 0
-609 734 0
610 -932 -607 0
-610 932 0
-610 607 0
611 -796 -21 0
-611 796 0
-611 21 0
612 -611 -16 0
-612 611 0
-612 16 0
613 -933 -610 0
-613 933 0
-613 610 0
614 -747 -738 0
-614 747 0
-614 738 0
615 -614 -1 0
-615 614 0
-615 1 0
616 -934 -613 0
-616 934 0
-616 613 0
617 -861 -705 0
-617 861 0
-617 705 0
618 -617 -5 0
-618 617 0
-618 5 0
619 -935 -616 0
-619 935 0
-619 616 0
620 -20 -767 0
-620 20 0
-620 767 0
621 -620 -749 0
-621 620 0
-621 749 0
622 -936 -619 0
-622 936 0
-622 619 0
623 -784 -7 0
-623 784 0
-623 7 0
624 -623 -16 0
-624 623 0
-624 16 0
625 -937 -622 0
-625 937 0
-625 622 0
626 -333 -17 0
-626 333 0
-626 17 0
627 -938 -625 0
-627 938 0
-627 625 0
628 -743 -695 0
-628 743 0
-628 695 0
629 -628 -25 0
-629 628 0
-629 25 0
630 -939 -627 0
-630 939 0
-630 627 0
631 -715 -711 0
-631 715 0
-631 711 0
632 -631 -45 0
-632 631 0
-632 45 0
633 -940 -630 0
-633 940 0
-633 630 0
634 -786 -749 0
-634 786 0
-634 749 0
635 -634 -734 0
-635 634 0
-635 734 0
636 -941 -633 0
-636 941 0
-636 633 0
637 -39 -36 0
-637 39 0
-637 36 0
638 -637 -715 0
-638 637 0
-638 715 0
639 -942 -636 0
-639 942 0
-639 636 0
640 -738 -1 0
-640 738 0
-640 1 0
641 -640 -29 0
-641 640 0
-641 29 0
642 -943 -639 0
-642 943 0
-642 639 0
643 -28 -20 0
-643 28 0
-643 20 0
644 -643 -13 0
-644 643 0
-644 13 0
645 -944 -642 0
-645 944 0
-645 642 0
646 -721 -15 0
-646 721 0
-646 15 0
647 -646 -709 0
-647 646 0
-647 709 0
648 -945 -645 0
-648 945 0
-648 645 0
649 -861 -8 0
-649 861 0
-649 8 0
650 -649 -775 0
-650 649 0
-650 775 0
651 -946 -648 0
-651 946 0
-651 648 0
652 -861 -5 0
-652 861 0
-652 5 0
653 -652 -49 0
-653 652 0
-653 49 0
654 -947 -651 0
-654 947 0
-654 651 0
655 -775 -747 0
-655 775 0
-655 747 0
656 -655 -16 0
-656 655 0
-656 16 0
657 -948 -654 0
-657 948 0
-657 654 0
658 -31 -695 0
-658 31 0
-658 695 0
659 -658 -3 0
-659 658 0
-659 3 0
660 -949 -657 0
-660 949 0
-660 657 0
661 -538 -45 0
-661 538 0
-661 45 0
662 -950 -660 0
-662 950 0
-662 660 0
663 -17 -9 0
-663 17 0
-663 9 0
664 -663 -715 0
-664 663 0
-664 715 0
665 -951 -662 0
-665 951 0
-665 662 0
666 -298 -18 0
-666 298 0
-666 18 0
667 -952 -665 0
-667 952 0
-667 665 0
668 -28 -747 0
-668 28 0
-668 747 0
669 -668 -701 0
-669 668 0
-669 701 0
670 -953 -667 0
-670 953 0
-670 667 0
671 -36 -30 0
-671 36 0
-671 30 0
672 -671 -37 0
-672 671 0
-672 37 0
673 -954 -670 0
-673 954 0
-673 670 0
674 -755 -14 0
-674 755 0
-674 14 0
675 -674 -696 0
-675 674 0
-675 696 0
676 -955 -673 0
-676 955 0
-676 673 0
677 -755 -15 0
-677 755 0
-677 15 0
678 -677 -704 0
-678 677 0
-678 704 0
679 -956 -676 0
-679 956 0
-679 676 0
680 -43 -1 0
-680 43 0
-680 1 0
681 -680 -3 0
-681 680 0
-681 3 0
682 -957 -679 0
-682 957 0
-682 679 0
683 -861 -4 0
-683 861 0
-683 4 0
684 -683 -734 0
-684 683 0
-684 734 0
685 -958 -682 0
-685 958 0
-685 682 0
686 -413 -696 0
-686 413 0
-686 696 0
687 -959 -685 0
-687 959 0
-687 685 0
688 -28 -5 0
-688 28 0
-688 5 0
689 -688 -21 0
-689 688 0
-689 21 0
690 -960 -687 0
-690 960 0
-690 687 0
691 -36 -9 0
-691 36 0
-691 9 0
692 -691 -45 0
-692 691 0
-692 45 0
693 -961 -690 0
-693 961 0
-693 690 0
-694 -1 0
694 1 0
-695 -5 0
695 5 0
-696 -6 0
696 6 0
-697 -54 0
697 54 0
-698 -52 0
698 52 0
-699 -9 0
699 9 0
-700 -57 0
700 57 0
-701 -2 0
701 2 0
-702 -11 0
702 11 0
-703 -60 0
703 60 0
-704 -12 0
704 12 0
-705 -4 0
705 4 0
-706 -13 0
706 13 0
-707 -63 0
707 63 0
-708 -66 0
708 66 0
-709 -18 0
709 18 0
-710 -69 0
710 69 0
-711 -20 0
711 20 0
-712 -21 0
712 21 0
-713 -72 0
713 72 0
-714 -7 0
714 7 0
-715 -23 0
715 23 0
-716 -75 0
716 75 0
-717 -25 0
717 25 0
-718 -24 0
718 24 0
-719 -26 0
719 26 0
-720 -78 0
720 78 0
-721 -27 0
721 27 0
-722 -81 0
722 81 0
-723 -28 0
723 28 0
-724 -84 0
724 84 0
-725 -87 0
725 87 0
-726 -31 0
726 31 0
-727 -90 0
727 90 0
-728 -32 0
728 32 0
-729 -33 0
729 33 0
-730 -93 0
730 93 0
-731 -96 0
731 96 0
-732 -35 0
732 35 0
-733 -34 0
733 34 0
-734 -30 0
734 30 0
-735 -99 0
735 99 0
-736 -36 0
736 36 0
-737 -102 0
737 102 0
-738 -8 0
738 8 0
-739 -105 0
739 105 0
-740 -108 0
740 108 0
-741 -111 0
741 111 0
-742 -39 0
742 39 0
-743 -38 0
743 38 0
-744 -114 0
744 114 0
-745 -117 0
745 117 0
-746 -41 0
746 41 0
-747 -10 0
747 10 0
-748 -120 0
748 120 0
-749 -42 0
749 42 0
-750 -123 0
750 123 0
-751 -43 0
751 43 0
-752 -126 0
752 126 0
-753 -129 0
753 129 0
-754 -132 0
754 132 0
-755 -40 0
755 40 0
-756 -16 0
756 16 0
-757 -135 0
757 135 0
-758 -138 0
758 138 0
-759 -141 0
759 141 0
-760 -44 0
760 44 0
-761 -144 0
761 144 0
-762 -147 0
762 147 0
-763 -37 0
763 37 0
-764 -150 0
764 150 0
-765 -153 0
765 153 0
-766 -156 0
766 156 0
-767 -14 0
767 14 0
-768 -159 0
768 159 0
-769 -162 0
769 162 0
-770 -165 0
770 165 0
-771 -15 0
771 15 0
-772 -168 0
772 168 0
-773 -47 0
773 47 0
-774 -171 0
774 171 0
-775 -48 0
775 48 0
-776 -174 0
776 174 0
-777 -177 0
777 177 0
-778 -180 0
778 180 0
-779 -183 0
779 183 0
-780 -186 0
780 186 0
-781 -189 0
781 189 0
-782 -192 0
782 192 0
-783 -195 0
783 195 0
-784 -29 0
784 29 0
-785 -198 0
785 198 0
-786 -46 0
786 46 0
-787 -201 0
787 201 0
-788 -204 0
788 204 0
-789 -207 0
789 207 0
-790 -210 0
790 210 0
-791 -213 0
791 213 0
-792 -216 0
792 216 0
-793 -3 0
793 3 0
-794 -219 0
794 219 0
-795 -222 0
795 222 0
-796 -45 0
796 45 0
-797 -225 0
797 225 0
-798 -228 0
798 228 0
-799 -231 0
799 231 0
-800 -233 0
800 233 0
-801 -50 0
801 50 0
-802 -236 0
802 236 0
-803 -239 0
803 239 0
-804 -19 0
804 19 0
-805 -242 0
805 242 0
-806 -49 0
806 49 0
-807 -245 0
807 245 0
-808 -248 0
808 248 0
-809 -251 0
809 251 0
-810 -254 0
810 254 0
-811 -257 0
811 257 0
-812 -260 0
812 260 0
-813 -263 0
813 263 0
-814 -266 0
814 266 0
-815 -269 0
815 269 0
-816 -272 0
816 272 0
-817 -275 0
817 275 0
-818 -278 0
818 278 0
-819 -281 0
819 281 0
-820 -284 0
820 284 0
-821 -287 0
821 287 0
-822 -290 0
822 290 0
-823 -293 0
823 293 0
-824 -17 0
824 17 0
-825 -296 0
825 296 0
-826 -299 0
826 299 0
-827 -302 0
827 302 0
-828 -305 0
828 305 0
-829 -308 0
829 308 0
-830 -311 0
830 311 0
-831 -314 0
831 314 0
-832 -317 0
832 317 0
-833 -320 0
833 320 0
-834 -323 0
834 323 0
-835 -326 0
835 326 0
-836 -329 0
836 329 0
-837 -331 0
837 331 0
-838 -334 0
838 334 0
-839 -337 0
839 337 0
-840 -340 0
840 340 0
-841 -343 0
841 343 0
-842 -346 0
842 346 0
-843 -349 0
843 349 0
-844 -352 0
844 352 0
-845 -355 0
845 355 0
-846 -358 0
846 358 0
-847 -361 0
847 361 0
-848 -364 0
848 364 0
-849 -367 0
849 367 0
-850 -370 0
850 370 0
-851 -373 0
851 373 0
-852 -376 0
852 376 0
-853 -378 0
853 378 0
-854 -381 0
854 381 0
-855 -384 0
855 384 0
-856 -387 0
856 387 0
-857 -390 0
857 390 0
-858 -393 0
858 393 0
-859 -396 0
859 396 0
-860 -399 0
860 399 0
-861 -22 0
861 22 0
-862 -402 0
862 402 0
-863 -405 0
863 405 0
-864 -408 0
864 408 0
-865 -411 0
865 411 0
-866 -414 0
866 414 0
-867 -417 0
867 417 0
-868 -420 0
868 420 0
-869 -423 0
869 423 0
-870 -426 0
870 426 0
-871 -429 0
871 429 0
-872 -431 0
872 431 0
-873 -434 0
873 434 0
-874 -437 0
874 437 0
-875 -440 0
875 440 0
-876 -443 0
876 443 0
-877 -446 0
877 446 0
-878 -449 0
878 449 0
-879 -452 0
879 452 0
-880 -455 0
880 455 0
-881 -458 0
881 458 0
-882 -461 0
882 461 0
-883 -464 0
883 464 0
-884 -467 0
884 467 0
-885 -470 0
885 470 0
-886 -473 0
886 473 0
-887 -476 0
887 476 0
-888 -479 0
888 479 0
-889 -482 0
889 482 0
-890 -485 0
890 485 0
-891 -488 0
891 488 0
-892 -491 0
892 491 0
-893 -494 0
893 494 0
-894 -497 0
894 497 0
-895 -500 0
895 500 0
-896 -503 0
896 503 0
-897 -506 0
897 506 0
-898 -509 0
898 509 0
-899 -512 0
899 512 0
-900 -515 0
900 515 0
-901 -518 0
901 518 0
-902 -521 0
902 521 0
-903 -524 0
903 524 0
-904 -527 0
904 527 0
-905 -530 0
905 530 0
-906 -533 0
906 533 0
-907 -536 0
907 536 0
-908 -539 0
908 539 0
-909 -542 0
909 542 0
-910 -545 0
910 545 0
-911 -548 0
911 548 0
-912 -551 0
912 551 0
-913 -553 0
913 553 0
-914 -556 0
914 556 0
-915 -559 0
915 559 0
-916 -562 0
916 562 0
-917 -565 0
917 565 0
-918 -568 0
918 568 0
-919 -571 0
919 571 0
-920 -573 0
920 573 0
-921 -576 0
921 576 0
-922 -579 0
922 579 0
-923 -582 0
923 582 0
-924 -585 0
924 585 0
-925 -588 0
925 588 0
-926 -591 0
926 591 0
-927 -594 0
927 594 0
-928 -597 0
928 597 0
-929 -600 0
929 600 0
-930 -603 0
930 603 0
-931 -606 0
931 606 0
-932 -609 0
932 609 0
-933 -612 0
933 612 0
-934 -615 0
934 615 0
-935 -618 0
935 618 0
-936 -621 0
936 621 0
-937 -624 0
937 624 0
-938 -626 0
938 626 0
-939 -629 0
939 629 0
-940 -632 0
940 632 0
-941 -635 0
941 635 0
-942 -638 0
942 638 0
-943 -641 0
943 641 0
-944 -644 0
944 644 0
-945 -647 0
945 647 0
-946 -650 0
946 650 0
-947 -653 0
947 653 0
-948 -656 0
948 656 0
-949 -659 0
949 659 0
-950 -661 0
950 661 0
-951 -664 0
951 664 0
-952 -666 0
952 666 0
-953 -669 0
953 669 0
-954 -672 0
954 672 0
-955 -675 0
955 675 0
-956 -678 0
956 678 0
-957 -681 0
957 681 0
-958 -684 0
958 684 0
-959 -686 0
959 686 0
-960 -689 0
960 689 0
-961 -692 0
961 692 0
693 0
